(set-info :smt-lib-version 2.6)
(set-logic QF_BV)
(set-info :source |
 Patrice Godefroid, SAGE (systematic dynamic test generation)
 For more information: http://research.microsoft.com/en-us/um/people/pg/public_psfiles/ndss2008.pdf
|)
(set-info :category "industrial")
(set-info :status sat)
(declare-fun T1_121916 () (_ BitVec 8))
(declare-fun T1_121918 () (_ BitVec 8))
(declare-fun T1_121919 () (_ BitVec 8))
(declare-fun T1_121920 () (_ BitVec 8))
(assert (let ((?v_4 ((_ zero_extend 24) T1_121916))) (let ((?v_5 (bvsub ?v_4 (_ bv48 32))) (?v_3 ((_ zero_extend 24) (_ bv1 8))) (?v_2 ((_ zero_extend 24) (_ bv2 8))) (?v_0 (bvsub ((_ zero_extend 24) T1_121918) (_ bv48 32)))) (let ((?v_1 (bvsub (bvadd ((_ zero_extend 24) T1_121919) (bvshl (bvadd ?v_0 (bvshl ?v_0 ?v_2)) ?v_3)) (_ bv48 32)))) (let ((?v_6 (bvsub (bvadd ((_ zero_extend 24) T1_121920) (bvshl (bvadd ?v_1 (bvshl ?v_1 ?v_2)) ?v_3)) (_ bv48 32)))) (let ((?v_7 (bvadd ?v_6 ?v_5))) (and true (bvslt (bvadd ?v_4 (_ bv130 32)) ?v_7) (= (bvsub ?v_4 (_ bv47 32)) (_ bv1 32)) (bvsle (_ bv0 32) ?v_5) (bvsle (_ bv0 32) ?v_6) (bvslt (bvadd ?v_4 (_ bv129 32)) ?v_7) (bvslt ?v_4 ?v_7) (bvslt (bvsub ?v_4 (_ bv1 32)) ?v_7) (bvslt ?v_5 ?v_7) (bvsle ?v_7 (_ bv1024 32)) (bvsle (_ bv0 32) ?v_7))))))))
(check-sat)
(exit)
